c FILE: TEST
c
p edge 50 1075
e 2 1
e 3 2
e 4 3
e 4 1
e 5 4
e 5 1
e 6 1
e 7 1
e 8 2
e 9 2
e 10 3
e 11 3
e 12 4
e 13 4
e 14 5
e 15 5
e 16 6
e 17 6
e 18 7
e 19 7
e 20 8
e 21 8
e 22 9
e 23 9
e 24 10
e 25 10
e 26 11
e 27 11
e 28 12
e 29 12
e 30 13
e 31 13
e 32 14
e 33 14
e 34 15
e 35 15
e 36 16
e 37 16
e 38 17
e 39 17
e 40 18
e 41 18
e 42 19
e 43 19
e 44 20
e 45 20
e 46 21
e 47 21
e 48 22
e 49 22
e 50 23
